22161
1 0 1 0 0 1 1 1 1 0 0 1 0 0 1 1 0 1 0 0 1 0 0 0 1 0 0 0 0 0 
6 0 6 2 6 5 2 11 6 7 5 20 20 20 2 14 8 17 5 11 2 0 5 2 5 20 2 24 5 5 5 11 6 17 20 20 24 15 2 14 0 14 15 6 15 14 2 20 17 14 5 2 14 24 6 20 8 0 0 8 0 24 8 0 11 11 5 0 5 5 6 6 11 17 15 20 5 20 2 5 20 0 6 7 2 17 17 0 20 5 2 15 17 0 0 15 14 6 0 6 6 0 8 11 2 11 17 0 14 14 14 14 17 11 11 15 24 15 24 11 24 6 11 20 6 15 11 15 17 14 7 17 24 0 20 8 17 15 20 17 7 14 8 14 8 17 11 11 17 11 